idb/edb/tapp24.lp
move(a,b).
move(a,c).
move(a,o).
move(c,d).
move(c,e).
move(d,e).
move(d,f).
move(d,g).
move(d,h).
move(e,d). % add
move(e,h).
move(e,m).
move(g,d).
move(h,i).
move(i,j).
move(k,l).
move(l,e).
move(l,m).
move(m,e). % add
move(m,n).
move(n,m).
